
  14    4
  10   10   10   10

   0   0   0   0   0   1 2 
  10   0   1   0   0   1 3 
   8   0   5   0   2   3 13 8 4 
   4   0   0   0   6   1 5 
   2   1   7   3  10   1 6 
   2   0   0   0   7   1 7 
   1   7  10  10   0   1 9 
   4   0   9   0   9   1 9 
   8   5   0   0   5   1 10 
   1   0   7   0   0   1 11 
   4   0   6   0   0   1 12 
   5  10   7   0   0   1 14
   2  10   7   0   0   1 14
   0   0   0   0   0   0 

TAO:0.458333